language ESSENCE' 1.0
$ minion Nodes: 1
$ minion TotalTime: 0.000579
$ Savile Row TotalTime: 0.208
letting x_tuple3 be [9, 9;int(1..2)]
letting x_tuple2 be [6, 7;int(1..2)]
letting x_tuple1 be [3, 5;int(1..2)]
